Version identifier: 12.10.0.0 | 2019-11-26 | 843d4de
CPXPARAM_Read_DataCheck                          1
CPXPARAM_RandomSeed                              201903125
CPXPARAM_TimeLimit                               7200
Parallel mode: deterministic, using up to 8 threads for concurrent optimization:
 * Starting dual Simplex on 1 thread...
 * Starting Barrier on 6 threads...
 * Starting primal Simplex on 1 thread...
Tried aggregator 1 time.
No LP presolve or aggregator reductions.
Presolve time = 0.00 sec. (5.87 ticks)

Iteration log . . .
Iteration:     1   Dual objective     =          1227.000000
Perturbation started.
Iteration:   101   Dual objective     =          1227.000000
Iteration:   238   Dual objective     =          1227.028402
Iteration:   394   Dual objective     =          1227.065670
Iteration:   620   Dual objective     =          1227.065675
Iteration:   845   Dual objective     =          1227.065679
Iteration:  1066   Dual objective     =          1227.065682
Iteration:  1296   Dual objective     =          1227.065684
Iteration:  1530   Dual objective     =          1227.065686
Iteration:  1762   Dual objective     =          1227.065687
Iteration:  1996   Dual objective     =          1227.065688
Iteration:  2228   Dual objective     =          1227.065689
Removing perturbation.

Dual simplex solved model.

